NAME 
OBJSENSE MAX
ROWS
 N  OBJ
 L  packing[0]
 L  packing[1]
 L  packing[2]
 L  packing[3]
 L  packing[4]
 L  packing[5]
 L  packing[6]
 L  packing[7]
 L  packing[8]
 L  packing[9]
 L  packing[10]
 L  packing[11]
 L  packing[12]
 L  packing[13]
 L  packing[14]
 L  packing[15]
 L  packing[16]
 L  packing[17]
 L  packing[18]
 L  packing[19]
 L  packing[20]
 L  packing[21]
 L  packing[22]
 L  packing[23]
 L  packing[24]
 L  packing[25]
 L  packing[26]
 L  packing[27]
 L  packing[28]
 L  packing[29]
 L  packing[30]
 L  packing[31]
 L  packing[32]
 L  packing[33]
 L  packing[34]
 L  packing[35]
 L  packing[36]
 L  packing[37]
 L  packing[38]
 L  packing[39]
 L  packing[40]
 L  packing[41]
 L  packing[42]
 L  packing[43]
 L  packing[44]
 L  packing[45]
 L  packing[46]
 L  packing[47]
 L  packing[48]
 L  packing[49]
 L  R53     
COLUMNS
    MARKER    'MARKER'                 'INTORG'
    x[1]      OBJ       163
    x[1]      packing[0]  168
    x[1]      packing[2]  22
    x[1]      packing[3]  75
    x[1]      packing[4]  106
    x[1]      packing[5]  138
    x[1]      packing[6]  182
    x[1]      packing[8]  160
    x[1]      packing[9]  95
    x[1]      packing[10]  86
    x[1]      packing[13]  176
    x[1]      packing[15]  116
    x[1]      packing[16]  101
    x[1]      packing[17]  122
    x[1]      packing[19]  17
    x[1]      packing[20]  145
    x[1]      packing[21]  171
    x[1]      packing[22]  62
    x[1]      packing[23]  39
    x[1]      packing[24]  175
    x[1]      packing[25]  190
    x[1]      packing[27]  146
    x[1]      packing[28]  63
    x[1]      packing[29]  6
    x[1]      packing[30]  145
    x[1]      packing[31]  108
    x[1]      packing[32]  161
    x[1]      packing[33]  72
    x[1]      packing[34]  28
    x[1]      packing[35]  121
    x[1]      packing[36]  36
    x[1]      packing[37]  105
    x[1]      packing[40]  138
    x[1]      packing[41]  163
    x[1]      packing[43]  53
    x[1]      packing[44]  7
    x[1]      packing[46]  84
    x[1]      packing[47]  8
    x[1]      packing[48]  93
    x[1]      packing[49]  78
    x[1]      R53       1
    x[2]      OBJ       110
    x[2]      packing[0]  124
    x[2]      packing[1]  178
    x[2]      packing[3]  46
    x[2]      packing[4]  164
    x[2]      packing[5]  173
    x[2]      packing[6]  185
    x[2]      packing[7]  158
    x[2]      packing[8]  5
    x[2]      packing[9]  13
    x[2]      packing[11]  141
    x[2]      packing[12]  54
    x[2]      packing[13]  62
    x[2]      packing[14]  172
    x[2]      packing[15]  39
    x[2]      packing[17]  122
    x[2]      packing[18]  137
    x[2]      packing[19]  114
    x[2]      packing[21]  123
    x[2]      packing[23]  3
    x[2]      packing[24]  131
    x[2]      packing[25]  53
    x[2]      packing[26]  118
    x[2]      packing[28]  94
    x[2]      packing[29]  187
    x[2]      packing[32]  106
    x[2]      packing[33]  114
    x[2]      packing[34]  138
    x[2]      packing[35]  133
    x[2]      packing[36]  139
    x[2]      packing[38]  182
    x[2]      packing[40]  44
    x[2]      packing[41]  133
    x[2]      packing[42]  117
    x[2]      packing[43]  188
    x[2]      packing[44]  157
    x[2]      packing[46]  86
    x[2]      packing[47]  32
    x[2]      packing[48]  94
    x[2]      packing[49]  13
    x[3]      OBJ       14
    x[3]      packing[0]  113
    x[3]      packing[1]  151
    x[3]      packing[3]  33
    x[3]      packing[4]  72
    x[3]      packing[5]  146
    x[3]      packing[6]  4
    x[3]      packing[8]  127
    x[3]      packing[9]  126
    x[3]      packing[11]  164
    x[3]      packing[12]  48
    x[3]      packing[13]  163
    x[3]      packing[14]  167
    x[3]      packing[15]  110
    x[3]      packing[16]  183
    x[3]      packing[18]  106
    x[3]      packing[20]  45
    x[3]      packing[21]  2
    x[3]      packing[22]  40
    x[3]      packing[23]  3
    x[3]      packing[24]  96
    x[3]      packing[26]  13
    x[3]      packing[27]  89
    x[3]      packing[28]  69
    x[3]      packing[29]  176
    x[3]      packing[30]  93
    x[3]      packing[31]  128
    x[3]      packing[33]  111
    x[3]      packing[34]  155
    x[3]      packing[35]  54
    x[3]      packing[39]  81
    x[3]      packing[40]  124
    x[3]      packing[41]  141
    x[3]      packing[43]  126
    x[3]      packing[45]  97
    x[3]      packing[47]  35
    x[3]      packing[48]  108
    x[3]      packing[49]  124
    x[4]      OBJ       31
    x[4]      packing[0]  98
    x[4]      packing[1]  11
    x[4]      packing[2]  32
    x[4]      packing[3]  85
    x[4]      packing[4]  137
    x[4]      packing[6]  27
    x[4]      packing[7]  105
    x[4]      packing[8]  157
    x[4]      packing[9]  194
    x[4]      packing[10]  65
    x[4]      packing[11]  108
    x[4]      packing[12]  192
    x[4]      packing[13]  134
    x[4]      packing[15]  14
    x[4]      packing[17]  33
    x[4]      packing[18]  64
    x[4]      packing[19]  138
    x[4]      packing[20]  54
    x[4]      packing[21]  40
    x[4]      packing[22]  116
    x[4]      packing[23]  34
    x[4]      packing[24]  158
    x[4]      packing[25]  176
    x[4]      packing[26]  159
    x[4]      packing[27]  199
    x[4]      packing[28]  163
    x[4]      packing[29]  141
    x[4]      packing[31]  84
    x[4]      packing[34]  37
    x[4]      packing[35]  43
    x[4]      packing[36]  71
    x[4]      packing[37]  23
    x[4]      packing[38]  22
    x[4]      packing[41]  88
    x[4]      packing[43]  40
    x[4]      packing[44]  42
    x[4]      packing[45]  78
    x[4]      packing[46]  36
    x[4]      packing[47]  134
    x[4]      packing[48]  163
    x[4]      packing[49]  76
    x[5]      OBJ       8
    x[5]      packing[1]  133
    x[5]      packing[2]  11
    x[5]      packing[3]  145
    x[5]      packing[5]  160
    x[5]      packing[6]  128
    x[5]      packing[8]  35
    x[5]      packing[9]  115
    x[5]      packing[10]  47
    x[5]      packing[11]  3
    x[5]      packing[12]  108
    x[5]      packing[13]  125
    x[5]      packing[14]  23
    x[5]      packing[15]  55
    x[5]      packing[16]  27
    x[5]      packing[17]  45
    x[5]      packing[18]  75
    x[5]      packing[20]  35
    x[5]      packing[22]  199
    x[5]      packing[23]  58
    x[5]      packing[24]  165
    x[5]      packing[27]  196
    x[5]      packing[28]  2
    x[5]      packing[29]  28
    x[5]      packing[30]  52
    x[5]      packing[31]  14
    x[5]      packing[32]  198
    x[5]      packing[33]  51
    x[5]      packing[34]  161
    x[5]      packing[35]  123
    x[5]      packing[36]  55
    x[5]      packing[37]  43
    x[5]      packing[39]  194
    x[5]      packing[40]  67
    x[5]      packing[41]  199
    x[5]      packing[43]  111
    x[5]      packing[44]  21
    x[5]      packing[45]  25
    x[5]      packing[46]  80
    x[5]      packing[47]  131
    x[5]      packing[48]  28
    x[6]      OBJ       156
    x[6]      packing[1]  182
    x[6]      packing[2]  66
    x[6]      packing[3]  25
    x[6]      packing[4]  156
    x[6]      packing[5]  194
    x[6]      packing[6]  188
    x[6]      packing[7]  78
    x[6]      packing[10]  72
    x[6]      packing[11]  90
    x[6]      packing[12]  152
    x[6]      packing[14]  49
    x[6]      packing[15]  167
    x[6]      packing[19]  167
    x[6]      packing[20]  74
    x[6]      packing[21]  86
    x[6]      packing[22]  79
    x[6]      packing[23]  28
    x[6]      packing[24]  45
    x[6]      packing[25]  115
    x[6]      packing[28]  145
    x[6]      packing[29]  187
    x[6]      packing[30]  127
    x[6]      packing[31]  158
    x[6]      packing[32]  7
    x[6]      packing[33]  120
    x[6]      packing[35]  7
    x[6]      packing[38]  42
    x[6]      packing[39]  159
    x[6]      packing[40]  104
    x[6]      packing[41]  35
    x[6]      packing[42]  26
    x[6]      packing[43]  164
    x[6]      packing[44]  43
    x[6]      packing[45]  91
    x[6]      packing[46]  16
    x[6]      packing[47]  62
    x[6]      R53       1
    x[7]      OBJ       112
    x[7]      packing[0]  25
    x[7]      packing[1]  156
    x[7]      packing[2]  174
    x[7]      packing[3]  99
    x[7]      packing[4]  10
    x[7]      packing[6]  182
    x[7]      packing[7]  89
    x[7]      packing[8]  5
    x[7]      packing[9]  130
    x[7]      packing[11]  167
    x[7]      packing[13]  156
    x[7]      packing[14]  60
    x[7]      packing[15]  19
    x[7]      packing[16]  174
    x[7]      packing[19]  150
    x[7]      packing[20]  196
    x[7]      packing[23]  62
    x[7]      packing[24]  176
    x[7]      packing[25]  28
    x[7]      packing[26]  176
    x[7]      packing[27]  64
    x[7]      packing[29]  130
    x[7]      packing[30]  82
    x[7]      packing[31]  185
    x[7]      packing[33]  110
    x[7]      packing[34]  100
    x[7]      packing[37]  131
    x[7]      packing[39]  59
    x[7]      packing[40]  6
    x[7]      packing[42]  149
    x[7]      packing[43]  35
    x[7]      packing[45]  97
    x[7]      packing[46]  151
    x[7]      packing[47]  104
    x[7]      packing[48]  174
    x[7]      packing[49]  110
    x[7]      R53       1
    x[8]      OBJ       142
    x[8]      packing[0]  109
    x[8]      packing[1]  26
    x[8]      packing[2]  55
    x[8]      packing[3]  178
    x[8]      packing[4]  160
    x[8]      packing[6]  51
    x[8]      packing[7]  130
    x[8]      packing[8]  97
    x[8]      packing[10]  107
    x[8]      packing[11]  88
    x[8]      packing[13]  138
    x[8]      packing[14]  170
    x[8]      packing[16]  82
    x[8]      packing[17]  144
    x[8]      packing[19]  171
    x[8]      packing[20]  57
    x[8]      packing[22]  79
    x[8]      packing[24]  132
    x[8]      packing[25]  28
    x[8]      packing[27]  16
    x[8]      packing[29]  8
    x[8]      packing[30]  96
    x[8]      packing[32]  56
    x[8]      packing[33]  97
    x[8]      packing[34]  1
    x[8]      packing[36]  193
    x[8]      packing[37]  150
    x[8]      packing[39]  77
    x[8]      packing[41]  5
    x[8]      packing[42]  63
    x[8]      packing[43]  123
    x[8]      packing[44]  1
    x[8]      packing[45]  121
    x[8]      packing[46]  153
    x[8]      packing[47]  114
    x[8]      packing[49]  5
    x[8]      R53       1
    x[9]      OBJ       62
    x[9]      packing[0]  68
    x[9]      packing[2]  117
    x[9]      packing[3]  20
    x[9]      packing[4]  59
    x[9]      packing[5]  126
    x[9]      packing[8]  153
    x[9]      packing[9]  190
    x[9]      packing[11]  140
    x[9]      packing[12]  5
    x[9]      packing[13]  178
    x[9]      packing[15]  11
    x[9]      packing[17]  74
    x[9]      packing[18]  41
    x[9]      packing[19]  153
    x[9]      packing[20]  6
    x[9]      packing[21]  51
    x[9]      packing[22]  194
    x[9]      packing[23]  34
    x[9]      packing[24]  150
    x[9]      packing[26]  138
    x[9]      packing[27]  97
    x[9]      packing[30]  110
    x[9]      packing[32]  154
    x[9]      packing[33]  148
    x[9]      packing[36]  126
    x[9]      packing[37]  64
    x[9]      packing[40]  64
    x[9]      packing[41]  184
    x[9]      packing[42]  30
    x[9]      packing[43]  95
    x[9]      packing[44]  116
    x[9]      packing[45]  172
    x[9]      packing[46]  163
    x[9]      packing[47]  104
    x[9]      packing[48]  87
    x[9]      packing[49]  198
    x[10]     OBJ       23
    x[10]     packing[0]  173
    x[10]     packing[1]  71
    x[10]     packing[2]  69
    x[10]     packing[4]  30
    x[10]     packing[5]  32
    x[10]     packing[6]  87
    x[10]     packing[8]  44
    x[10]     packing[10]  61
    x[10]     packing[11]  151
    x[10]     packing[12]  68
    x[10]     packing[13]  85
    x[10]     packing[14]  193
    x[10]     packing[15]  184
    x[10]     packing[16]  139
    x[10]     packing[17]  155
    x[10]     packing[18]  173
    x[10]     packing[19]  49
    x[10]     packing[20]  20
    x[10]     packing[21]  99
    x[10]     packing[25]  111
    x[10]     packing[26]  14
    x[10]     packing[27]  36
    x[10]     packing[28]  95
    x[10]     packing[29]  53
    x[10]     packing[30]  131
    x[10]     packing[31]  26
    x[10]     packing[32]  44
    x[10]     packing[34]  65
    x[10]     packing[35]  51
    x[10]     packing[37]  38
    x[10]     packing[38]  7
    x[10]     packing[41]  77
    x[10]     packing[43]  177
    x[10]     packing[44]  121
    x[10]     packing[45]  86
    x[10]     packing[46]  175
    x[10]     packing[47]  161
    x[10]     packing[48]  33
    x[10]     packing[49]  120
    x[11]     OBJ       2
    x[11]     packing[0]  183
    x[11]     packing[1]  50
    x[11]     packing[4]  27
    x[11]     packing[5]  117
    x[11]     packing[6]  176
    x[11]     packing[7]  160
    x[11]     packing[8]  25
    x[11]     packing[10]  55
    x[11]     packing[11]  25
    x[11]     packing[13]  154
    x[11]     packing[14]  162
    x[11]     packing[15]  102
    x[11]     packing[16]  14
    x[11]     packing[17]  139
    x[11]     packing[18]  125
    x[11]     packing[19]  69
    x[11]     packing[20]  197
    x[11]     packing[21]  24
    x[11]     packing[22]  185
    x[11]     packing[24]  102
    x[11]     packing[25]  179
    x[11]     packing[26]  59
    x[11]     packing[29]  177
    x[11]     packing[31]  101
    x[11]     packing[32]  7
    x[11]     packing[34]  46
    x[11]     packing[36]  1
    x[11]     packing[37]  28
    x[11]     packing[38]  70
    x[11]     packing[39]  24
    x[11]     packing[40]  118
    x[11]     packing[41]  2
    x[11]     packing[42]  109
    x[11]     packing[43]  167
    x[11]     packing[45]  132
    x[11]     packing[46]  47
    x[11]     packing[47]  75
    x[11]     packing[48]  124
    x[12]     OBJ       23
    x[12]     packing[0]  66
    x[12]     packing[1]  197
    x[12]     packing[2]  129
    x[12]     packing[3]  31
    x[12]     packing[4]  3
    x[12]     packing[6]  113
    x[12]     packing[8]  29
    x[12]     packing[9]  177
    x[12]     packing[10]  131
    x[12]     packing[11]  161
    x[12]     packing[13]  42
    x[12]     packing[14]  191
    x[12]     packing[15]  104
    x[12]     packing[16]  189
    x[12]     packing[17]  30
    x[12]     packing[18]  112
    x[12]     packing[19]  184
    x[12]     packing[20]  104
    x[12]     packing[23]  77
    x[12]     packing[25]  89
    x[12]     packing[27]  126
    x[12]     packing[28]  25
    x[12]     packing[29]  82
    x[12]     packing[30]  171
    x[12]     packing[32]  44
    x[12]     packing[33]  29
    x[12]     packing[34]  123
    x[12]     packing[35]  168
    x[12]     packing[36]  187
    x[12]     packing[37]  168
    x[12]     packing[38]  20
    x[12]     packing[39]  151
    x[12]     packing[40]  79
    x[12]     packing[41]  63
    x[12]     packing[42]  48
    x[12]     packing[43]  79
    x[12]     packing[44]  63
    x[12]     packing[45]  136
    x[12]     packing[46]  54
    x[12]     packing[48]  171
    x[12]     packing[49]  130
    x[13]     OBJ       192
    x[13]     packing[0]  129
    x[13]     packing[3]  141
    x[13]     packing[6]  51
    x[13]     packing[8]  151
    x[13]     packing[9]  58
    x[13]     packing[11]  157
    x[13]     packing[13]  127
    x[13]     packing[14]  175
    x[13]     packing[15]  24
    x[13]     packing[19]  3
    x[13]     packing[20]  118
    x[13]     packing[22]  103
    x[13]     packing[23]  56
    x[13]     packing[26]  154
    x[13]     packing[27]  14
    x[13]     packing[28]  136
    x[13]     packing[29]  18
    x[13]     packing[30]  111
    x[13]     packing[31]  155
    x[13]     packing[32]  33
    x[13]     packing[33]  163
    x[13]     packing[34]  115
    x[13]     packing[35]  57
    x[13]     packing[36]  33
    x[13]     packing[38]  171
    x[13]     packing[39]  49
    x[13]     packing[40]  110
    x[13]     packing[43]  147
    x[13]     packing[44]  121
    x[13]     packing[45]  45
    x[13]     packing[47]  120
    x[13]     packing[48]  128
    x[13]     packing[49]  31
    x[13]     R53       1
    x[14]     OBJ       26
    x[14]     packing[0]  79
    x[14]     packing[2]  123
    x[14]     packing[3]  108
    x[14]     packing[4]  62
    x[14]     packing[7]  76
    x[14]     packing[8]  69
    x[14]     packing[9]  114
    x[14]     packing[10]  124
    x[14]     packing[11]  119
    x[14]     packing[12]  105
    x[14]     packing[13]  160
    x[14]     packing[14]  99
    x[14]     packing[15]  181
    x[14]     packing[18]  175
    x[14]     packing[19]  20
    x[14]     packing[22]  36
    x[14]     packing[25]  116
    x[14]     packing[27]  173
    x[14]     packing[28]  163
    x[14]     packing[30]  158
    x[14]     packing[31]  57
    x[14]     packing[32]  180
    x[14]     packing[33]  75
    x[14]     packing[35]  133
    x[14]     packing[38]  59
    x[14]     packing[39]  175
    x[14]     packing[41]  130
    x[14]     packing[42]  146
    x[14]     packing[44]  184
    x[14]     packing[45]  53
    x[14]     packing[46]  155
    x[14]     packing[47]  44
    x[15]     OBJ       25
    x[15]     packing[0]  151
    x[15]     packing[2]  103
    x[15]     packing[3]  167
    x[15]     packing[7]  34
    x[15]     packing[8]  196
    x[15]     packing[9]  112
    x[15]     packing[10]  66
    x[15]     packing[11]  96
    x[15]     packing[12]  77
    x[15]     packing[13]  177
    x[15]     packing[14]  32
    x[15]     packing[15]  1
    x[15]     packing[18]  123
    x[15]     packing[19]  106
    x[15]     packing[20]  80
    x[15]     packing[22]  117
    x[15]     packing[23]  27
    x[15]     packing[24]  57
    x[15]     packing[25]  16
    x[15]     packing[26]  170
    x[15]     packing[27]  188
    x[15]     packing[28]  60
    x[15]     packing[29]  112
    x[15]     packing[31]  190
    x[15]     packing[32]  190
    x[15]     packing[33]  68
    x[15]     packing[34]  161
    x[15]     packing[35]  40
    x[15]     packing[36]  39
    x[15]     packing[37]  178
    x[15]     packing[38]  33
    x[15]     packing[39]  55
    x[15]     packing[40]  38
    x[15]     packing[41]  3
    x[15]     packing[42]  41
    x[15]     packing[43]  46
    x[15]     packing[44]  37
    x[15]     packing[45]  133
    x[15]     packing[47]  160
    x[15]     packing[48]  179
    x[15]     packing[49]  123
    x[15]     R53       1
    x[16]     OBJ       65
    x[16]     packing[1]  37
    x[16]     packing[2]  11
    x[16]     packing[3]  71
    x[16]     packing[4]  120
    x[16]     packing[5]  81
    x[16]     packing[8]  18
    x[16]     packing[9]  27
    x[16]     packing[10]  86
    x[16]     packing[12]  138
    x[16]     packing[13]  32
    x[16]     packing[14]  182
    x[16]     packing[16]  52
    x[16]     packing[17]  145
    x[16]     packing[18]  22
    x[16]     packing[19]  141
    x[16]     packing[20]  68
    x[16]     packing[21]  166
    x[16]     packing[22]  175
    x[16]     packing[23]  44
    x[16]     packing[25]  93
    x[16]     packing[27]  3
    x[16]     packing[28]  45
    x[16]     packing[30]  71
    x[16]     packing[31]  138
    x[16]     packing[33]  193
    x[16]     packing[36]  86
    x[16]     packing[37]  155
    x[16]     packing[38]  146
    x[16]     packing[39]  71
    x[16]     packing[40]  115
    x[16]     packing[42]  150
    x[16]     packing[45]  88
    x[16]     packing[46]  119
    x[16]     packing[47]  177
    x[16]     packing[48]  159
    x[17]     OBJ       184
    x[17]     packing[0]  164
    x[17]     packing[2]  59
    x[17]     packing[3]  81
    x[17]     packing[4]  37
    x[17]     packing[5]  34
    x[17]     packing[6]  13
    x[17]     packing[7]  139
    x[17]     packing[9]  1
    x[17]     packing[10]  127
    x[17]     packing[11]  178
    x[17]     packing[13]  93
    x[17]     packing[14]  100
    x[17]     packing[15]  116
    x[17]     packing[16]  172
    x[17]     packing[17]  115
    x[17]     packing[18]  130
    x[17]     packing[19]  45
    x[17]     packing[23]  59
    x[17]     packing[24]  70
    x[17]     packing[26]  196
    x[17]     packing[27]  141
    x[17]     packing[29]  25
    x[17]     packing[30]  190
    x[17]     packing[31]  51
    x[17]     packing[33]  135
    x[17]     packing[34]  32
    x[17]     packing[37]  70
    x[17]     packing[38]  149
    x[17]     packing[39]  195
    x[17]     packing[40]  120
    x[17]     packing[41]  110
    x[17]     packing[42]  123
    x[17]     packing[44]  184
    x[17]     packing[45]  130
    x[17]     packing[46]  28
    x[17]     packing[48]  97
    x[17]     packing[49]  117
    x[18]     OBJ       19
    x[18]     packing[2]  99
    x[18]     packing[3]  131
    x[18]     packing[4]  34
    x[18]     packing[5]  117
    x[18]     packing[6]  72
    x[18]     packing[7]  131
    x[18]     packing[8]  28
    x[18]     packing[9]  33
    x[18]     packing[10]  42
    x[18]     packing[11]  136
    x[18]     packing[12]  83
    x[18]     packing[14]  197
    x[18]     packing[15]  142
    x[18]     packing[16]  79
    x[18]     packing[17]  169
    x[18]     packing[18]  21
    x[18]     packing[19]  34
    x[18]     packing[20]  103
    x[18]     packing[21]  101
    x[18]     packing[22]  72
    x[18]     packing[23]  111
    x[18]     packing[25]  180
    x[18]     packing[26]  165
    x[18]     packing[27]  191
    x[18]     packing[28]  188
    x[18]     packing[29]  174
    x[18]     packing[31]  104
    x[18]     packing[33]  122
    x[18]     packing[36]  115
    x[18]     packing[37]  77
    x[18]     packing[38]  47
    x[18]     packing[39]  174
    x[18]     packing[40]  158
    x[18]     packing[41]  13
    x[18]     packing[43]  68
    x[18]     packing[44]  137
    x[18]     packing[45]  9
    x[18]     packing[46]  82
    x[18]     packing[47]  162
    x[18]     packing[48]  80
    x[18]     packing[49]  57
    x[19]     OBJ       117
    x[19]     packing[0]  45
    x[19]     packing[1]  163
    x[19]     packing[2]  180
    x[19]     packing[3]  134
    x[19]     packing[4]  197
    x[19]     packing[5]  32
    x[19]     packing[6]  159
    x[19]     packing[9]  36
    x[19]     packing[11]  78
    x[19]     packing[13]  70
    x[19]     packing[15]  140
    x[19]     packing[16]  5
    x[19]     packing[17]  41
    x[19]     packing[18]  69
    x[19]     packing[19]  113
    x[19]     packing[21]  140
    x[19]     packing[22]  15
    x[19]     packing[24]  24
    x[19]     packing[25]  165
    x[19]     packing[27]  82
    x[19]     packing[28]  143
    x[19]     packing[29]  66
    x[19]     packing[30]  168
    x[19]     packing[32]  106
    x[19]     packing[33]  91
    x[19]     packing[34]  156
    x[19]     packing[37]  78
    x[19]     packing[39]  146
    x[19]     packing[40]  148
    x[19]     packing[41]  132
    x[19]     packing[42]  170
    x[19]     packing[43]  192
    x[19]     packing[44]  120
    x[19]     packing[47]  14
    x[19]     packing[48]  7
    x[20]     OBJ       58
    x[20]     packing[0]  170
    x[20]     packing[1]  116
    x[20]     packing[2]  11
    x[20]     packing[4]  123
    x[20]     packing[5]  142
    x[20]     packing[7]  116
    x[20]     packing[8]  23
    x[20]     packing[9]  30
    x[20]     packing[10]  107
    x[20]     packing[11]  14
    x[20]     packing[13]  151
    x[20]     packing[14]  171
    x[20]     packing[15]  72
    x[20]     packing[16]  117
    x[20]     packing[18]  81
    x[20]     packing[21]  193
    x[20]     packing[22]  29
    x[20]     packing[23]  44
    x[20]     packing[24]  33
    x[20]     packing[26]  185
    x[20]     packing[27]  150
    x[20]     packing[30]  9
    x[20]     packing[33]  114
    x[20]     packing[34]  119
    x[20]     packing[35]  103
    x[20]     packing[36]  72
    x[20]     packing[37]  101
    x[20]     packing[38]  26
    x[20]     packing[39]  59
    x[20]     packing[40]  44
    x[20]     packing[44]  143
    x[20]     packing[48]  149
    x[20]     packing[49]  17
    MARKER    'MARKER'                 'INTEND'
RHS
    RHS1      packing[0]  933
    RHS1      packing[1]  736
    RHS1      packing[2]  631
    RHS1      packing[3]  785
    RHS1      packing[4]  749
    RHS1      packing[5]  746
    RHS1      packing[6]  809
    RHS1      packing[7]  608
    RHS1      packing[8]  661
    RHS1      packing[9]  726
    RHS1      packing[10]  588
    RHS1      packing[11]  1008
    RHS1      packing[12]  515
    RHS1      packing[13]  1112
    RHS1      packing[14]  1072
    RHS1      packing[15]  799
    RHS1      packing[16]  667
    RHS1      packing[17]  667
    RHS1      packing[18]  727
    RHS1      packing[19]  837
    RHS1      packing[20]  651
    RHS1      packing[21]  598
    RHS1      packing[22]  751
    RHS1      packing[23]  340
    RHS1      packing[24]  757
    RHS1      packing[25]  770
    RHS1      packing[26]  774
    RHS1      packing[27]  956
    RHS1      packing[28]  696
    RHS1      packing[29]  785
    RHS1      packing[30]  857
    RHS1      packing[31]  750
    RHS1      packing[32]  643
    RHS1      packing[33]  907
    RHS1      packing[34]  719
    RHS1      packing[35]  517
    RHS1      packing[36]  577
    RHS1      packing[37]  705
    RHS1      packing[38]  487
    RHS1      packing[39]  835
    RHS1      packing[40]  739
    RHS1      packing[41]  739
    RHS1      packing[42]  586
    RHS1      packing[43]  906
    RHS1      packing[44]  749
    RHS1      packing[45]  747
    RHS1      packing[46]  715
    RHS1      packing[47]  819
    RHS1      packing[48]  937
    RHS1      packing[49]  600
    RHS1      R53       5
BOUNDS
 BV BND1      x[1]    
 BV BND1      x[2]    
 BV BND1      x[3]    
 BV BND1      x[4]    
 BV BND1      x[5]    
 BV BND1      x[6]    
 BV BND1      x[7]    
 BV BND1      x[8]    
 BV BND1      x[9]    
 BV BND1      x[10]   
 BV BND1      x[11]   
 BV BND1      x[12]   
 BV BND1      x[13]   
 BV BND1      x[14]   
 BV BND1      x[15]   
 BV BND1      x[16]   
 BV BND1      x[17]   
 BV BND1      x[18]   
 BV BND1      x[19]   
 BV BND1      x[20]   
ENDATA
